100
400
279
279
278
278
276
274
270
268
267
265
265
257
256
254
253
249
249
249
248
247
245
244
241
235
234
233
228
224
222
220
220
218
214
212
211
210
210
210
208
204
198
195
191
182
174
173
166
162
160
156
154
154
152
152
146
143
143
143
142
141
141
140
140
138
132
130
129
127
126
124
124
124
121
121
120
115
111
110
106
103
102
95
94
94
92
92
89
88
83
75
74
73
64
60
60
59
58
43
43
42
